c File: flat50_3_0.col
c
c SOURCE: Joseph Culberson (joe@cs.ualberta.ca)
c DESCRIPTION: Quasi-random coloring problem
c              generated with flatness = 0
c                             probability = 0.139
c                             known coloring = 3
c                             random seed = 1663
c              Creation Date:  Tue Jun  9 12:14:50 1998
c Maximum degree = 8 Minimum degree = 0
c p edge 50 115
c cnf created by edge2cnf
p cnf 150 545
-1 -2 0
-1 -3 0
-2 -3 0
1 2 3 0
-4 -5 0
-4 -6 0
-5 -6 0
4 5 6 0
-7 -8 0
-7 -9 0
-8 -9 0
7 8 9 0
-10 -11 0
-10 -12 0
-11 -12 0
10 11 12 0
-13 -14 0
-13 -15 0
-14 -15 0
13 14 15 0
-16 -17 0
-16 -18 0
-17 -18 0
16 17 18 0
-19 -20 0
-19 -21 0
-20 -21 0
19 20 21 0
-22 -23 0
-22 -24 0
-23 -24 0
22 23 24 0
-25 -26 0
-25 -27 0
-26 -27 0
25 26 27 0
-28 -29 0
-28 -30 0
-29 -30 0
28 29 30 0
-31 -32 0
-31 -33 0
-32 -33 0
31 32 33 0
-34 -35 0
-34 -36 0
-35 -36 0
34 35 36 0
-37 -38 0
-37 -39 0
-38 -39 0
37 38 39 0
-40 -41 0
-40 -42 0
-41 -42 0
40 41 42 0
-43 -44 0
-43 -45 0
-44 -45 0
43 44 45 0
-46 -47 0
-46 -48 0
-47 -48 0
46 47 48 0
-49 -50 0
-49 -51 0
-50 -51 0
49 50 51 0
-52 -53 0
-52 -54 0
-53 -54 0
52 53 54 0
-55 -56 0
-55 -57 0
-56 -57 0
55 56 57 0
-58 -59 0
-58 -60 0
-59 -60 0
58 59 60 0
-61 -62 0
-61 -63 0
-62 -63 0
61 62 63 0
-64 -65 0
-64 -66 0
-65 -66 0
64 65 66 0
-67 -68 0
-67 -69 0
-68 -69 0
67 68 69 0
-70 -71 0
-70 -72 0
-71 -72 0
70 71 72 0
-73 -74 0
-73 -75 0
-74 -75 0
73 74 75 0
-76 -77 0
-76 -78 0
-77 -78 0
76 77 78 0
-79 -80 0
-79 -81 0
-80 -81 0
79 80 81 0
-82 -83 0
-82 -84 0
-83 -84 0
82 83 84 0
-85 -86 0
-85 -87 0
-86 -87 0
85 86 87 0
-88 -89 0
-88 -90 0
-89 -90 0
88 89 90 0
-91 -92 0
-91 -93 0
-92 -93 0
91 92 93 0
-94 -95 0
-94 -96 0
-95 -96 0
94 95 96 0
-97 -98 0
-97 -99 0
-98 -99 0
97 98 99 0
-100 -101 0
-100 -102 0
-101 -102 0
100 101 102 0
-103 -104 0
-103 -105 0
-104 -105 0
103 104 105 0
-106 -107 0
-106 -108 0
-107 -108 0
106 107 108 0
-109 -110 0
-109 -111 0
-110 -111 0
109 110 111 0
-112 -113 0
-112 -114 0
-113 -114 0
112 113 114 0
-115 -116 0
-115 -117 0
-116 -117 0
115 116 117 0
-118 -119 0
-118 -120 0
-119 -120 0
118 119 120 0
-121 -122 0
-121 -123 0
-122 -123 0
121 122 123 0
-124 -125 0
-124 -126 0
-125 -126 0
124 125 126 0
-127 -128 0
-127 -129 0
-128 -129 0
127 128 129 0
-130 -131 0
-130 -132 0
-131 -132 0
130 131 132 0
-133 -134 0
-133 -135 0
-134 -135 0
133 134 135 0
-136 -137 0
-136 -138 0
-137 -138 0
136 137 138 0
-139 -140 0
-139 -141 0
-140 -141 0
139 140 141 0
-142 -143 0
-142 -144 0
-143 -144 0
142 143 144 0
-145 -146 0
-145 -147 0
-146 -147 0
145 146 147 0
-148 -149 0
-148 -150 0
-149 -150 0
148 149 150 0
-52 -1 0
-53 -2 0
-54 -3 0
-64 -1 0
-65 -2 0
-66 -3 0
-67 -1 0
-68 -2 0
-69 -3 0
-91 -1 0
-92 -2 0
-93 -3 0
-106 -1 0
-107 -2 0
-108 -3 0
-121 -1 0
-122 -2 0
-123 -3 0
-55 -4 0
-56 -5 0
-57 -6 0
-64 -4 0
-65 -5 0
-66 -6 0
-82 -4 0
-83 -5 0
-84 -6 0
-136 -4 0
-137 -5 0
-138 -6 0
-52 -7 0
-53 -8 0
-54 -9 0
-91 -7 0
-92 -8 0
-93 -9 0
-142 -7 0
-143 -8 0
-144 -9 0
-55 -10 0
-56 -11 0
-57 -12 0
-106 -10 0
-107 -11 0
-108 -12 0
-112 -10 0
-113 -11 0
-114 -12 0
-127 -10 0
-128 -11 0
-129 -12 0
-55 -13 0
-56 -14 0
-57 -15 0
-58 -13 0
-59 -14 0
-60 -15 0
-85 -13 0
-86 -14 0
-87 -15 0
-124 -13 0
-125 -14 0
-126 -15 0
-133 -13 0
-134 -14 0
-135 -15 0
-52 -16 0
-53 -17 0
-54 -18 0
-61 -16 0
-62 -17 0
-63 -18 0
-79 -16 0
-80 -17 0
-81 -18 0
-112 -16 0
-113 -17 0
-114 -18 0
-115 -16 0
-116 -17 0
-117 -18 0
-136 -16 0
-137 -17 0
-138 -18 0
-52 -19 0
-53 -20 0
-54 -21 0
-61 -19 0
-62 -20 0
-63 -21 0
-79 -19 0
-80 -20 0
-81 -21 0
-97 -19 0
-98 -20 0
-99 -21 0
-106 -19 0
-107 -20 0
-108 -21 0
-112 -19 0
-113 -20 0
-114 -21 0
-130 -19 0
-131 -20 0
-132 -21 0
-142 -19 0
-143 -20 0
-144 -21 0
-67 -22 0
-68 -23 0
-69 -24 0
-106 -22 0
-107 -23 0
-108 -24 0
-133 -22 0
-134 -23 0
-135 -24 0
-142 -22 0
-143 -23 0
-144 -24 0
-145 -22 0
-146 -23 0
-147 -24 0
-67 -25 0
-68 -26 0
-69 -27 0
-70 -25 0
-71 -26 0
-72 -27 0
-94 -25 0
-95 -26 0
-96 -27 0
-97 -25 0
-98 -26 0
-99 -27 0
-109 -25 0
-110 -26 0
-111 -27 0
-112 -25 0
-113 -26 0
-114 -27 0
-118 -25 0
-119 -26 0
-120 -27 0
-58 -28 0
-59 -29 0
-60 -30 0
-61 -28 0
-62 -29 0
-63 -30 0
-82 -28 0
-83 -29 0
-84 -30 0
-91 -28 0
-92 -29 0
-93 -30 0
-124 -28 0
-125 -29 0
-126 -30 0
-127 -28 0
-128 -29 0
-129 -30 0
-133 -28 0
-134 -29 0
-135 -30 0
-61 -31 0
-62 -32 0
-63 -33 0
-55 -34 0
-56 -35 0
-57 -36 0
-64 -34 0
-65 -35 0
-66 -36 0
-73 -34 0
-74 -35 0
-75 -36 0
-118 -34 0
-119 -35 0
-120 -36 0
-133 -34 0
-134 -35 0
-135 -36 0
-124 -37 0
-125 -38 0
-126 -39 0
-142 -37 0
-143 -38 0
-144 -39 0
-70 -40 0
-71 -41 0
-72 -42 0
-73 -40 0
-74 -41 0
-75 -42 0
-91 -40 0
-92 -41 0
-93 -42 0
-118 -40 0
-119 -41 0
-120 -42 0
-136 -40 0
-137 -41 0
-138 -42 0
-103 -43 0
-104 -44 0
-105 -45 0
-115 -43 0
-116 -44 0
-117 -45 0
-130 -43 0
-131 -44 0
-132 -45 0
-64 -46 0
-65 -47 0
-66 -48 0
-73 -46 0
-74 -47 0
-75 -48 0
-103 -46 0
-104 -47 0
-105 -48 0
-85 -49 0
-86 -50 0
-87 -51 0
-88 -49 0
-89 -50 0
-90 -51 0
-103 -49 0
-104 -50 0
-105 -51 0
-112 -55 0
-113 -56 0
-114 -57 0
-118 -55 0
-119 -56 0
-120 -57 0
-145 -55 0
-146 -56 0
-147 -57 0
-115 -61 0
-116 -62 0
-117 -63 0
-148 -61 0
-149 -62 0
-150 -63 0
-103 -64 0
-104 -65 0
-105 -66 0
-106 -64 0
-107 -65 0
-108 -66 0
-121 -64 0
-122 -65 0
-123 -66 0
-136 -64 0
-137 -65 0
-138 -66 0
-109 -67 0
-110 -68 0
-111 -69 0
-118 -67 0
-119 -68 0
-120 -69 0
-109 -70 0
-110 -71 0
-111 -72 0
-121 -70 0
-122 -71 0
-123 -72 0
-145 -70 0
-146 -71 0
-147 -72 0
-103 -73 0
-104 -74 0
-105 -75 0
-124 -73 0
-125 -74 0
-126 -75 0
-136 -73 0
-137 -74 0
-138 -75 0
-148 -73 0
-149 -74 0
-150 -75 0
-148 -79 0
-149 -80 0
-150 -81 0
-121 -82 0
-122 -83 0
-123 -84 0
-124 -82 0
-125 -83 0
-126 -84 0
-133 -82 0
-134 -83 0
-135 -84 0
-139 -82 0
-140 -83 0
-141 -84 0
-127 -85 0
-128 -86 0
-129 -87 0
-139 -85 0
-140 -86 0
-141 -87 0
-124 -88 0
-125 -89 0
-126 -90 0
-136 -88 0
-137 -89 0
-138 -90 0
-118 -91 0
-119 -92 0
-120 -93 0
-133 -91 0
-134 -92 0
-135 -93 0
-109 -94 0
-110 -95 0
-111 -96 0
-118 -94 0
-119 -95 0
-120 -96 0
-142 -94 0
-143 -95 0
-144 -96 0
-145 -94 0
-146 -95 0
-147 -96 0
-109 -97 0
-110 -98 0
-111 -99 0
-112 -97 0
-113 -98 0
-114 -99 0
-124 -97 0
-125 -98 0
-126 -99 0
-142 -97 0
-143 -98 0
-144 -99 0
-103 -100 0
-104 -101 0
-105 -102 0
